
n_res = 4;
rcap = [55, 64, 454, 475];
rtype = [1, 1, 2, 2];
n_tasks = 100;
modes =  [{1, 2, 3}, {4, 5, 6}, {7, 8, 9}, {10, 11, 12}, {13, 14, 15}, {16, 17, 18}, {19, 20, 21}, {22, 23, 24}, {25, 26, 27}, {28, 29, 30}, {31, 32, 33}, {34, 35, 36}, {37, 38, 39}, {40, 41, 42}, {43, 44, 45}, {46, 47, 48}, {49, 50, 51}, {52, 53, 54}, {55, 56, 57}, {58, 59, 60}, {61, 62, 63}, {64, 65, 66}, {67, 68, 69}, {70, 71, 72}, {73, 74, 75}, {76, 77, 78}, {79, 80, 81}, {82, 83, 84}, {85, 86, 87}, {88, 89, 90}, {91, 92, 93}, {94, 95, 96}, {97, 98, 99}, {100, 101, 102}, {103, 104, 105}, {106, 107, 108}, {109, 110, 111}, {112, 113, 114}, {115, 116, 117}, {118, 119, 120}, {121, 122, 123}, {124, 125, 126}, {127, 128, 129}, {130, 131, 132}, {133, 134, 135}, {136, 137, 138}, {139, 140, 141}, {142, 143, 144}, {145, 146, 147}, {148, 149, 150}, {151, 152, 153}, {154, 155, 156}, {157, 158, 159}, {160, 161, 162}, {163, 164, 165}, {166, 167, 168}, {169, 170, 171}, {172, 173, 174}, {175, 176, 177}, {178, 179, 180}, {181, 182, 183}, {184, 185, 186}, {187, 188, 189}, {190, 191, 192}, {193, 194, 195}, {196, 197, 198}, {199, 200, 201}, {202, 203, 204}, {205, 206, 207}, {208, 209, 210}, {211, 212, 213}, {214, 215, 216}, {217, 218, 219}, {220, 221, 222}, {223, 224, 225}, {226, 227, 228}, {229, 230, 231}, {232, 233, 234}, {235, 236, 237}, {238, 239, 240}, {241, 242, 243}, {244, 245, 246}, {247, 248, 249}, {250, 251, 252}, {253, 254, 255}, {256, 257, 258}, {259, 260, 261}, {262, 263, 264}, {265, 266, 267}, {268, 269, 270}, {271, 272, 273}, {274, 275, 276}, {277, 278, 279}, {280, 281, 282}, {283, 284, 285}, {286, 287, 288}, {289, 290, 291}, {292, 293, 294}, {295, 296, 297}, {298, 299, 300}];
succ =  [{98, 97, 94, 91, 89, 86, 63, 58, 57, 54, 51, 47, 44, 40, 35, 33, 32, 28}, {100, 96, 94, 91, 65, 64, 59, 57, 56, 55, 49, 44, 43, 34, 25}, {99, 98, 94, 93, 92, 91, 86, 81, 75, 66, 65, 63, 59, 56, 54, 51, 49, 46, 43, 41, 40, 33}, {100, 91, 82, 66, 65, 64, 63, 56, 52, 48, 46, 43, 41, 35, 25}, {100, 98, 95, 94, 93, 92, 91, 89, 87, 86, 84, 81, 75, 65, 64, 62, 61, 59, 58, 57, 56, 55, 49, 43, 34, 33}, {97, 95, 94, 92, 91, 90, 86, 85, 82, 79, 75, 65, 63, 62, 58, 56, 55, 52, 49, 47, 45, 43}, {97, 93, 92, 91, 90, 89, 87, 86, 84, 83, 64, 63, 62, 48, 47, 35, 30}, {100, 99, 98, 97, 95, 92, 90, 86, 85, 84, 81, 79, 63, 57, 56, 51, 49, 48, 46, 45, 43}, {100, 96, 95, 94, 92, 89, 87, 86, 84, 81, 75, 65, 64, 62, 56, 52, 49, 46, 43, 34, 33}, {99, 94, 91, 88, 86, 84, 83, 81, 80, 78, 75, 58, 57, 56, 54, 48, 47, 45, 40, 33}, {98, 91, 88, 83, 65, 58, 56, 52, 40, 35, 25}, {98, 96, 95, 94, 91, 90, 89, 86, 75, 72, 62, 56, 54, 46, 44, 41, 34}, {99, 93, 92, 91, 89, 88, 87, 86, 85, 84, 80, 79, 77, 64, 63, 62, 59, 57, 56, 52, 51, 47}, {95, 92, 91, 89, 88, 87, 86, 84, 83, 82, 81, 80, 79, 77, 75, 72, 69, 65, 64, 63, 62, 61, 57, 52, 49}, {92, 89, 86, 84, 81, 75, 65, 62, 61, 56, 49, 34, 33}, {98, 96, 94, 93, 90, 89, 87, 86, 85, 82, 81, 78, 77, 76, 75, 74, 66, 64, 63, 61, 57, 43}, {99, 93, 91, 90, 89, 86, 85, 75, 72, 66, 64, 58, 57, 55, 49, 47, 43}, {93, 92, 87, 86, 84, 83, 82, 81, 78, 75, 65, 64, 58, 55, 47, 33}, {94, 92, 89, 86, 82, 81, 64, 63, 62, 61, 56, 52, 43, 33}, {99, 93, 92, 88, 85, 80, 79, 73, 57, 56, 53, 51, 46, 40}, {97, 94, 90, 87, 84, 81, 80, 79, 78, 77, 75, 65, 64, 62, 57, 56, 48, 47}, {98, 93, 88, 86, 84, 81, 80, 75, 66, 64, 63, 57, 56, 52, 33}, {94, 92, 86, 83, 80, 79, 78, 73, 65, 56, 40, 36}, {98, 94, 93, 92, 87, 86, 85, 81, 79, 76, 74, 62, 59, 57, 56, 43}, {97, 95, 93, 92, 89, 87, 86, 84, 81, 80, 75, 62, 61, 33}, {98, 97, 93, 92, 88, 82, 78, 75, 74, 71, 63, 56, 44, 41}, {99, 97, 91, 90, 89, 86, 81, 79, 78, 77, 75, 72, 69, 68, 65, 61, 52}, {88, 84, 83, 82, 81, 80, 79, 78, 77, 75, 74, 72, 69, 68, 64, 62, 52}, {100, 97, 94, 92, 86, 84, 83, 75, 72, 68, 52, 47}, {100, 96, 94, 85, 82, 80, 79, 78, 75, 74, 73, 72, 68, 61, 58, 56}, {91, 86, 83, 81, 79, 76, 74, 69, 61, 41}, {95, 82, 79, 77, 75, 74, 70, 68, 48}, {90, 85, 79, 77, 76, 74, 73, 72, 71, 70, 69, 68, 67}, {88, 85, 83, 82, 80, 78, 76, 73, 69, 68, 67, 63}, {95, 85, 81, 78, 77, 76, 75, 74, 72, 71, 69, 61}, {91, 84, 82, 81, 75, 74, 72, 69, 61, 57}, {89, 84, 75, 73, 68, 67, 46}, {99, 98, 91, 89, 77, 75, 72, 70, 69, 62}, {99, 94, 93, 80, 78, 75, 74, 72, 68}, {82, 72, 71, 70, 68, 62, 61}, {87, 84, 77, 73, 67, 57}, {95, 81, 75, 74, 68, 56}, {88, 83, 80, 73, 71, 68, 67}, {87, 81, 80, 79, 69, 68, 67}, {96, 93, 89, 87, 77, 72, 68}, {78, 76, 74, 71, 70, 69}, {76, 74, 70, 69, 61}, {73, 72, 71, 69, 61}, {78, 76, 70, 68, 67}, {84, 75, 72, 70, 68}, {96, 83, 78, 61}, {73, 71, 70, 67}, {91, 75, 72, 67}, {85, 69, 61}, {77, 71, 70}, {69, 67}, {70, 68}, {71, 67}, {82, 72}, {81, 75}, {67}, {67}, {70}, {71}, {76}, {69}, {}, {}, {}, {}, {}, {}, {}, {}, {}, {}, {}, {}, {}, {}, {}, {}, {}, {}, {}, {}, {}, {}, {}, {}, {}, {}, {}, {}, {}, {}, {}, {}, {}, {}];
n_opt = 300;
dur = [2, 7, 10, 1, 5, 7, 1, 8, 9, 5, 6, 8, 4, 7, 9, 2, 4, 6, 1, 2, 5, 3, 4, 8, 1, 2, 5, 6, 7, 8, 2, 4, 10, 3, 5, 6, 3, 7, 8, 5, 6, 10, 3, 6, 7, 6, 7, 9, 5, 8, 9, 1, 3, 10, 1, 2, 7, 2, 7, 8, 1, 5, 7, 1, 4, 7, 3, 4, 5, 2, 5, 8, 1, 5, 8, 1, 2, 5, 1, 2, 4, 4, 5, 8, 4, 5, 9, 3, 9, 10, 2, 4, 7, 1, 9, 10, 1, 6, 9, 4, 5, 7, 5, 6, 8, 4, 5, 6, 1, 3, 10, 7, 8, 10, 1, 2, 6, 4, 5, 6, 1, 6, 10, 6, 9, 10, 2, 6, 9, 1, 5, 7, 5, 9, 10, 8, 9, 10, 3, 8, 10, 1, 3, 8, 1, 2, 4, 1, 2, 3, 2, 6, 7, 1, 2, 7, 6, 7, 8, 7, 8, 10, 1, 3, 4, 1, 5, 9, 5, 9, 10, 4, 8, 9, 1, 7, 8, 5, 9, 10, 2, 3, 4, 1, 4, 7, 8, 9, 10, 3, 5, 6, 2, 6, 8, 3, 4, 5, 2, 4, 9, 1, 7, 10, 1, 5, 6, 3, 8, 10, 7, 8, 9, 2, 3, 8, 2, 6, 9, 6, 9, 10, 1, 2, 3, 2, 3, 9, 1, 7, 8, 1, 5, 7, 2, 7, 10, 1, 2, 3, 1, 9, 10, 1, 6, 7, 1, 4, 7, 1, 2, 9, 6, 8, 9, 3, 6, 9, 1, 8, 9, 2, 6, 7, 1, 4, 7, 8, 9, 10, 2, 3, 10, 4, 5, 9, 2, 4, 6, 1, 2, 10, 1, 2, 7, 5, 8, 10, 2, 8, 9, 1, 2, 10, 1, 7, 10, 5, 6, 7];
rreq = [|5, 4, 3, 4, 4, 3, 4, 3, 1, 2, 2, 2, 2, 2, 2, 4, 3, 2, 4, 3, 1, 4, 2, 2, 2, 1, 1, 1, 1, 1, 2, 1, 1, 4, 4, 3, 4, 3, 3, 2, 2, 2, 3, 2, 2, 5, 5, 5, 2, 2, 2, 2, 1, 1, 4, 3, 3, 2, 1, 1, 4, 3, 3, 3, 3, 2, 5, 3, 3, 5, 3, 3, 4, 4, 2, 2, 2, 2, 3, 3, 3, 3, 3, 1, 1, 1, 1, 5, 3, 2, 3, 3, 3, 3, 3, 3, 3, 2, 1, 2, 2, 1, 5, 3, 3, 5, 5, 5, 1, 1, 1, 4, 3, 3, 1, 1, 1, 5, 4, 3, 2, 1, 1, 5, 4, 2, 3, 2, 2, 4, 4, 4, 3, 2, 1, 4, 4, 4, 2, 1, 1, 4, 4, 4, 5, 4, 4, 3, 3, 3, 4, 4, 4, 5, 2, 2, 3, 3, 3, 2, 1, 1, 1, 1, 1, 3, 3, 3, 1, 1, 1, 3, 3, 3, 4, 3, 3, 4, 4, 4, 5, 4, 3, 1, 1, 1, 3, 2, 2, 2, 2, 2, 5, 4, 3, 4, 3, 2, 5, 3, 3, 4, 2, 2, 3, 2, 2, 4, 4, 2, 3, 2, 2, 3, 3, 3, 5, 4, 3, 4, 4, 2, 4, 2, 2, 2, 2, 2, 4, 4, 3, 5, 3, 3, 3, 3, 1, 1, 1, 1, 3, 3, 3, 5, 2, 2, 4, 3, 1, 3, 3, 3, 3, 2, 1, 4, 2, 1, 4, 3, 3, 4, 3, 3, 2, 2, 2, 4, 2, 2, 5, 5, 5, 3, 3, 2, 5, 5, 5, 3, 2, 1, 4, 3, 3, 3, 1, 1, 2, 1, 1, 4, 3, 1, 2, 1, 1, 2, 1, 1
 |4, 4, 4, 4, 3, 3, 2, 2, 2, 2, 1, 1, 4, 2, 1, 4, 3, 2, 4, 3, 3, 5, 5, 5, 3, 3, 1, 3, 2, 1, 4, 4, 4, 4, 3, 2, 2, 2, 2, 3, 1, 1, 4, 4, 3, 5, 4, 2, 3, 3, 2, 3, 2, 1, 1, 1, 1, 3, 3, 3, 3, 2, 1, 4, 4, 4, 5, 3, 3, 1, 1, 1, 1, 1, 1, 4, 3, 3, 5, 3, 3, 4, 3, 3, 5, 5, 5, 3, 3, 3, 5, 2, 1, 4, 3, 3, 3, 2, 2, 4, 4, 2, 1, 1, 1, 3, 3, 3, 3, 2, 1, 4, 3, 2, 4, 3, 3, 3, 3, 2, 4, 3, 2, 3, 2, 1, 4, 4, 3, 3, 3, 3, 5, 5, 5, 4, 3, 3, 2, 2, 2, 3, 2, 2, 4, 4, 4, 5, 5, 5, 4, 3, 2, 3, 2, 2, 5, 4, 4, 4, 3, 3, 3, 2, 2, 3, 3, 3, 3, 1, 1, 4, 3, 1, 3, 1, 1, 5, 4, 4, 2, 2, 2, 5, 4, 3, 2, 1, 1, 2, 1, 1, 4, 3, 3, 3, 3, 3, 4, 3, 2, 3, 3, 3, 3, 3, 3, 2, 2, 2, 3, 2, 2, 2, 2, 2, 5, 4, 3, 3, 3, 3, 5, 3, 3, 3, 3, 3, 3, 3, 3, 5, 4, 4, 5, 4, 3, 2, 1, 1, 4, 3, 2, 1, 1, 1, 2, 2, 1, 4, 4, 4, 3, 3, 3, 1, 1, 1, 3, 3, 1, 5, 3, 3, 3, 3, 3, 2, 1, 1, 1, 1, 1, 3, 3, 2, 2, 2, 2, 4, 3, 3, 4, 3, 3, 3, 3, 2, 2, 1, 1, 5, 5, 5, 3, 2, 1, 4, 3, 3
 |10, 8, 6, 7, 7, 7, 8, 5, 5, 6, 3, 2, 2, 2, 2, 9, 5, 2, 6, 3, 2, 4, 2, 2, 6, 6, 6, 4, 2, 1, 8, 6, 2, 2, 2, 2, 5, 4, 2, 3, 3, 3, 1, 1, 1, 7, 6, 3, 8, 8, 8, 6, 5, 3, 6, 5, 5, 7, 4, 2, 8, 7, 3, 6, 3, 1, 7, 5, 4, 9, 9, 9, 6, 4, 3, 9, 7, 5, 8, 5, 4, 8, 8, 8, 8, 4, 3, 5, 4, 2, 4, 2, 1, 8, 7, 3, 10, 9, 9, 3, 3, 1, 2, 2, 2, 8, 7, 7, 9, 9, 8, 9, 5, 3, 2, 1, 1, 4, 4, 4, 8, 6, 6, 5, 4, 2, 6, 3, 2, 3, 2, 2, 7, 6, 6, 6, 5, 2, 8, 6, 6, 8, 6, 5, 3, 2, 2, 8, 8, 8, 3, 3, 3, 7, 6, 1, 9, 7, 3, 6, 4, 4, 7, 6, 1, 10, 7, 3, 10, 5, 4, 8, 7, 4, 7, 5, 4, 5, 4, 4, 9, 8, 6, 6, 6, 6, 9, 9, 7, 8, 6, 2, 4, 4, 3, 5, 4, 4, 7, 6, 4, 9, 6, 5, 9, 9, 7, 4, 2, 1, 6, 6, 5, 6, 3, 1, 4, 4, 3, 6, 3, 3, 1, 1, 1, 7, 4, 2, 3, 2, 2, 6, 5, 5, 6, 5, 3, 4, 2, 2, 8, 8, 8, 7, 6, 4, 10, 9, 8, 5, 3, 2, 7, 6, 4, 8, 4, 2, 8, 7, 6, 8, 7, 6, 8, 6, 5, 9, 9, 9, 9, 6, 4, 4, 4, 4, 8, 8, 7, 8, 8, 8, 8, 7, 7, 5, 4, 4, 7, 5, 5, 2, 2, 2, 6, 4, 3, 7, 5, 3
 |1, 1, 1, 6, 6, 6, 4, 4, 3, 8, 7, 6, 5, 4, 3, 6, 4, 4, 5, 3, 1, 4, 4, 3, 7, 4, 2, 4, 3, 2, 7, 6, 5, 2, 2, 2, 3, 3, 3, 9, 6, 5, 8, 6, 6, 10, 8, 8, 9, 8, 8, 2, 1, 1, 8, 7, 6, 3, 2, 2, 6, 5, 4, 2, 2, 2, 7, 6, 6, 9, 7, 4, 7, 5, 2, 6, 6, 6, 3, 2, 1, 7, 5, 3, 8, 8, 6, 6, 6, 6, 7, 7, 3, 10, 5, 4, 4, 2, 1, 9, 6, 3, 6, 6, 4, 4, 3, 2, 8, 7, 6, 5, 5, 2, 6, 5, 3, 4, 2, 2, 6, 5, 5, 7, 4, 2, 7, 6, 3, 8, 5, 2, 8, 3, 2, 7, 6, 6, 7, 7, 6, 8, 6, 6, 8, 4, 3, 6, 4, 2, 3, 3, 3, 5, 4, 3, 3, 2, 2, 7, 4, 2, 4, 3, 1, 8, 8, 8, 8, 8, 8, 7, 6, 6, 7, 3, 1, 8, 4, 3, 9, 9, 7, 10, 9, 9, 5, 5, 5, 6, 6, 6, 10, 8, 7, 7, 7, 5, 7, 6, 6, 7, 7, 5, 6, 3, 3, 8, 5, 2, 10, 10, 10, 10, 8, 8, 9, 8, 7, 7, 6, 6, 9, 4, 3, 6, 5, 4, 4, 3, 3, 8, 6, 4, 3, 2, 2, 5, 4, 3, 7, 6, 6, 6, 6, 6, 7, 7, 7, 7, 4, 3, 6, 5, 2, 4, 4, 4, 7, 5, 4, 7, 5, 4, 9, 7, 6, 9, 7, 6, 7, 4, 3, 6, 5, 3, 7, 6, 7, 2, 2, 2, 7, 6, 5, 7, 5, 3, 9, 9, 8, 3, 3, 3, 6, 5, 4, 4, 3, 3|];